0 74 164
1 611 146
2 198 132
3 383 344
4 347 658
5 307 267
6 685 199
7 275 482
8 177 459
9 306 189
10 92 531
11 484 730
12 199 747
13 117 231
14 60 430
15 448 626
16 95 18
17 589 381
18 412 257
19 171 109
20 585 385
21 293 545
22 471 117
23 707 63
24 187 125
25 256 42
26 115 665
27 100 240
28 631 75
29 765 576
30 606 217
31 735 472
32 490 562
33 533 701
34 657 712
35 738 228
36 425 539
37 697 301
38 14 439
39 245 303
40 339 404
41 694 718
42 516 283
43 345 329
44 627 264
45 242 656
46 167 74
47 72 787
48 445 136
49 238 214
